(declare-fun var0 () String)
(assert (str.in.re var0 (re.++ (re.+ (re.+ (str.to.re "P"))) (re.++ (re.+ (re.union (str.to.re "NNN") (str.to.re "OO"))) (re.++ (re.union (re.* (str.to.re "L")) (re.* (str.to.re "MM"))) (re.++ (re.+ (re.union (str.to.re "J") (str.to.re "KKK"))) (re.++ (re.* (re.* (str.to.re "I"))) (re.++ (re.+ (re.union (str.to.re "GG") (str.to.re "HHH"))) (re.++ (re.+ (re.union (str.to.re "EE") (str.to.re "FFF"))) (re.++ (re.* (re.+ (str.to.re "DDD"))) (re.++ (re.union (re.+ (str.to.re "AA")) (re.union (str.to.re "BB") (str.to.re "C"))) (re.++ (re.* (re.union (str.to.re "yyy") (str.to.re "zz"))) (re.++ (re.+ (re.union (str.to.re "www") (str.to.re "xxx"))) (re.++ (re.+ (re.+ (str.to.re "vvv"))) (re.++ (re.+ (re.* (str.to.re "u"))) (re.++ (re.* (re.union (str.to.re "sss") (str.to.re "t"))) (re.++ (re.* (re.+ (str.to.re "rrr"))) (re.++ (re.union (re.union (str.to.re "n") (str.to.re "oo")) (re.union (str.to.re "pp") (str.to.re "qqq"))) (re.++ (re.union (re.* (str.to.re "k")) (re.union (str.to.re "ll") (str.to.re "m"))) (re.++ (re.* (re.+ (str.to.re "jjj"))) (re.++ (re.* (re.+ (str.to.re "i"))) (re.++ (re.+ (re.union (str.to.re "ggg") (str.to.re "h"))) (re.++ (re.* (re.union (str.to.re "eee") (str.to.re "ff"))) (re.++ (re.union (re.* (str.to.re "ccc")) (re.* (str.to.re "ddd"))) (re.++ (re.union (re.* (str.to.re "a")) (re.+ (str.to.re "bbb"))) (re.++ (re.* (re.union (str.to.re "888") (str.to.re "9"))) (re.++ (re.* (re.union (str.to.re "6") (str.to.re "7"))) (re.++ (re.union (re.* (str.to.re "333")) (re.union (str.to.re "4") (str.to.re "5"))) (re.++ (re.+ (re.+ (str.to.re "222"))) (re.++ (re.+ (re.+ (str.to.re "111"))) (re.+ (re.* (str.to.re "000")))))))))))))))))))))))))))))))))
(check-sat)